p cnf 100 460
1 2 3 4 5 0
6 7 8 9 10 0
11 12 13 14 15 0
16 17 18 19 20 0
21 22 23 24 25 0
26 27 28 29 30 0
31 32 33 34 35 0
36 37 38 39 40 0
41 42 43 44 45 0
46 47 48 49 50 0
51 52 53 54 55 0
56 57 58 59 60 0
61 62 63 64 65 0
66 67 68 69 70 0
71 72 73 74 75 0
76 77 78 79 80 0
81 82 83 84 85 0
86 87 88 89 90 0
91 92 93 94 95 0
96 97 98 99 100 0
-1 -6 0
-2 -7 0
-3 -8 0
-4 -9 0
-5 -10 0
-1 -21 0
-2 -22 0
-3 -23 0
-4 -24 0
-5 -25 0
-1 -31 0
-2 -32 0
-3 -33 0
-4 -34 0
-5 -35 0
-1 -46 0
-2 -47 0
-3 -48 0
-4 -49 0
-5 -50 0
-1 -51 0
-2 -52 0
-3 -53 0
-4 -54 0
-5 -55 0
-1 -56 0
-2 -57 0
-3 -58 0
-4 -59 0
-5 -60 0
-1 -66 0
-2 -67 0
-3 -68 0
-4 -69 0
-5 -70 0
-1 -71 0
-2 -72 0
-3 -73 0
-4 -74 0
-5 -75 0
-1 -86 0
-2 -87 0
-3 -88 0
-4 -89 0
-5 -90 0
-1 -91 0
-2 -92 0
-3 -93 0
-4 -94 0
-5 -95 0
-6 -11 0
-7 -12 0
-8 -13 0
-9 -14 0
-10 -15 0
-6 -26 0
-7 -27 0
-8 -28 0
-9 -29 0
-10 -30 0
-6 -46 0
-7 -47 0
-8 -48 0
-9 -49 0
-10 -50 0
-6 -51 0
-7 -52 0
-8 -53 0
-9 -54 0
-10 -55 0
-6 -66 0
-7 -67 0
-8 -68 0
-9 -69 0
-10 -70 0
-6 -76 0
-7 -77 0
-8 -78 0
-9 -79 0
-10 -80 0
-6 -81 0
-7 -82 0
-8 -83 0
-9 -84 0
-10 -85 0
-6 -96 0
-7 -97 0
-8 -98 0
-9 -99 0
-10 -100 0
-11 -41 0
-12 -42 0
-13 -43 0
-14 -44 0
-15 -45 0
-11 -46 0
-12 -47 0
-13 -48 0
-14 -49 0
-15 -50 0
-11 -51 0
-12 -52 0
-13 -53 0
-14 -54 0
-15 -55 0
-11 -61 0
-12 -62 0
-13 -63 0
-14 -64 0
-15 -65 0
-11 -76 0
-12 -77 0
-13 -78 0
-14 -79 0
-15 -80 0
-16 -21 0
-17 -22 0
-18 -23 0
-19 -24 0
-20 -25 0
-16 -36 0
-17 -37 0
-18 -38 0
-19 -39 0
-20 -40 0
-16 -46 0
-17 -47 0
-18 -48 0
-19 -49 0
-20 -50 0
-16 -51 0
-17 -52 0
-18 -53 0
-19 -54 0
-20 -55 0
-16 -66 0
-17 -67 0
-18 -68 0
-19 -69 0
-20 -70 0
-16 -76 0
-17 -77 0
-18 -78 0
-19 -79 0
-20 -80 0
-16 -86 0
-17 -87 0
-18 -88 0
-19 -89 0
-20 -90 0
-16 -91 0
-17 -92 0
-18 -93 0
-19 -94 0
-20 -95 0
-21 -26 0
-22 -27 0
-23 -28 0
-24 -29 0
-25 -30 0
-21 -46 0
-22 -47 0
-23 -48 0
-24 -49 0
-25 -50 0
-21 -51 0
-22 -52 0
-23 -53 0
-24 -54 0
-25 -55 0
-21 -56 0
-22 -57 0
-23 -58 0
-24 -59 0
-25 -60 0
-21 -61 0
-22 -62 0
-23 -63 0
-24 -64 0
-25 -65 0
-21 -71 0
-22 -72 0
-23 -73 0
-24 -74 0
-25 -75 0
-21 -76 0
-22 -77 0
-23 -78 0
-24 -79 0
-25 -80 0
-26 -46 0
-27 -47 0
-28 -48 0
-29 -49 0
-30 -50 0
-26 -51 0
-27 -52 0
-28 -53 0
-29 -54 0
-30 -55 0
-26 -71 0
-27 -72 0
-28 -73 0
-29 -74 0
-30 -75 0
-26 -76 0
-27 -77 0
-28 -78 0
-29 -79 0
-30 -80 0
-26 -81 0
-27 -82 0
-28 -83 0
-29 -84 0
-30 -85 0
-26 -96 0
-27 -97 0
-28 -98 0
-29 -99 0
-30 -100 0
-31 -36 0
-32 -37 0
-33 -38 0
-34 -39 0
-35 -40 0
-31 -41 0
-32 -42 0
-33 -43 0
-34 -44 0
-35 -45 0
-31 -46 0
-32 -47 0
-33 -48 0
-34 -49 0
-35 -50 0
-31 -51 0
-32 -52 0
-33 -53 0
-34 -54 0
-35 -55 0
-31 -61 0
-32 -62 0
-33 -63 0
-34 -64 0
-35 -65 0
-31 -86 0
-32 -87 0
-33 -88 0
-34 -89 0
-35 -90 0
-36 -56 0
-37 -57 0
-38 -58 0
-39 -59 0
-40 -60 0
-36 -61 0
-37 -62 0
-38 -63 0
-39 -64 0
-40 -65 0
-36 -86 0
-37 -87 0
-38 -88 0
-39 -89 0
-40 -90 0
-36 -96 0
-37 -97 0
-38 -98 0
-39 -99 0
-40 -100 0
-41 -51 0
-42 -52 0
-43 -53 0
-44 -54 0
-45 -55 0
-41 -56 0
-42 -57 0
-43 -58 0
-44 -59 0
-45 -60 0
-41 -61 0
-42 -62 0
-43 -63 0
-44 -64 0
-45 -65 0
-41 -71 0
-42 -72 0
-43 -73 0
-44 -74 0
-45 -75 0
-41 -81 0
-42 -82 0
-43 -83 0
-44 -84 0
-45 -85 0
-41 -86 0
-42 -87 0
-43 -88 0
-44 -89 0
-45 -90 0
-46 -61 0
-47 -62 0
-48 -63 0
-49 -64 0
-50 -65 0
-46 -71 0
-47 -72 0
-48 -73 0
-49 -74 0
-50 -75 0
-46 -76 0
-47 -77 0
-48 -78 0
-49 -79 0
-50 -80 0
-46 -81 0
-47 -82 0
-48 -83 0
-49 -84 0
-50 -85 0
-46 -96 0
-47 -97 0
-48 -98 0
-49 -99 0
-50 -100 0
-51 -71 0
-52 -72 0
-53 -73 0
-54 -74 0
-55 -75 0
-51 -86 0
-52 -87 0
-53 -88 0
-54 -89 0
-55 -90 0
-51 -96 0
-52 -97 0
-53 -98 0
-54 -99 0
-55 -100 0
-56 -66 0
-57 -67 0
-58 -68 0
-59 -69 0
-60 -70 0
-56 -71 0
-57 -72 0
-58 -73 0
-59 -74 0
-60 -75 0
-56 -76 0
-57 -77 0
-58 -78 0
-59 -79 0
-60 -80 0
-56 -81 0
-57 -82 0
-58 -83 0
-59 -84 0
-60 -85 0
-61 -66 0
-62 -67 0
-63 -68 0
-64 -69 0
-65 -70 0
-61 -71 0
-62 -72 0
-63 -73 0
-64 -74 0
-65 -75 0
-61 -76 0
-62 -77 0
-63 -78 0
-64 -79 0
-65 -80 0
-61 -81 0
-62 -82 0
-63 -83 0
-64 -84 0
-65 -85 0
-61 -91 0
-62 -92 0
-63 -93 0
-64 -94 0
-65 -95 0
-61 -96 0
-62 -97 0
-63 -98 0
-64 -99 0
-65 -100 0
-66 -71 0
-67 -72 0
-68 -73 0
-69 -74 0
-70 -75 0
-66 -81 0
-67 -82 0
-68 -83 0
-69 -84 0
-70 -85 0
-66 -96 0
-67 -97 0
-68 -98 0
-69 -99 0
-70 -100 0
-71 -76 0
-72 -77 0
-73 -78 0
-74 -79 0
-75 -80 0
-71 -86 0
-72 -87 0
-73 -88 0
-74 -89 0
-75 -90 0
-71 -91 0
-72 -92 0
-73 -93 0
-74 -94 0
-75 -95 0
-76 -86 0
-77 -87 0
-78 -88 0
-79 -89 0
-80 -90 0
-76 -91 0
-77 -92 0
-78 -93 0
-79 -94 0
-80 -95 0
-81 -91 0
-82 -92 0
-83 -93 0
-84 -94 0
-85 -95 0
-81 -96 0
-82 -97 0
-83 -98 0
-84 -99 0
-85 -100 0
